
Gurobi 9.0.3 (win64, Java) logging started Sun Feb 21 02:15:28 2021


--------------------------------------------
Warning: your license will expire in 11 days
--------------------------------------------

Academic license - for non-commercial use only
